c Random Network
p max    10      20
n         1  s
n        10  t
a       2      10      18
a       3       9      21
a       1       3      14
a       2       6      37
a       9       2      14
a       3       4      30
a       2       8      11
a       3       8       7
a       9       1      41
a       1       5      33
a      10       2      37
a       2       1      38
a       4       5      43
a       4       1      11
a       8       1      48
a       5       6      17
a       1       2      34
a       3       6      43
a       4       8      45
a       9       5      39
